SCIP version 0.82 [precision: 8 byte] [memory: block] [mode: optimized] [LP solver: SOPLEX 1.3.0]
Copyright (c) 2002-2006 Konrad-Zuse-Zentrum fuer Informationstechnik Berlin (ZIB)

reading parameter file <scip.set>

read problem </ufs/psxjm3/instances/random_6.ctt.c.zpl>
============

****************************************************
* Zuse Institute Mathematical Programming Language *
* Release 2.04  Copyright (C)2005 by Thorsten Koch *
****************************************************

original problem has 20700 variables (20700 bin, 0 int, 0 impl, 0 cont) and 3520 constraints

solve problem
=============

LP Solver <SOPLEX 1.3.0>: dual feasibility tolerance cannot be set -- tolerance of SCIP and LP solver may differ
LP Solver <SOPLEX 1.3.0>: barrier convergence tolerance cannot be set -- tolerance of SCIP and LP solver may differ
LP Solver <SOPLEX 1.3.0>: fastmip setting not available -- SCIP parameter has no effect
LP Solver <SOPLEX 1.3.0>: scaling not available -- SCIP parameter has no effect
LP Solver <SOPLEX 1.3.0>: presolving not available -- SCIP parameter has no effect
transformed problem has 20700 variables (20700 bin, 0 int, 0 impl, 0 cont) and 3520 constraints
   3520 constraints of type <linear>

presolving:
(round 1) 2712 del vars, 48 del conss, 2712 chg bounds, 0 chg sides, 0 chg coeffs, 0 upgd conss, 0 impls, 2733 clqs
(round 2) 2712 del vars, 328 del conss, 2712 chg bounds, 0 chg sides, 0 chg coeffs, 0 upgd conss, 0 impls, 2733 clqs
(round 3) 2712 del vars, 2075 del conss, 2712 chg bounds, 1762 chg sides, 0 chg coeffs, 0 upgd conss, 0 impls, 2733 clqs
(round 4) 2712 del vars, 2075 del conss, 2712 chg bounds, 1762 chg sides, 0 chg coeffs, 1338 upgd conss, 0 impls, 2733 clqs
   (3.9s) probing: 100/17988 (0.6%) - 0 fixings, 0 aggregations, 0 implications, 0 bound changes
presolving (5 rounds):
 2712 deleted vars, 2075 deleted constraints, 2712 tightened bounds, 0 added holes, 1762 changed sides, 0 changed coefficients
 0 implications, 2733 cliques
presolved problem has 17988 variables (17988 bin, 0 int, 0 impl, 0 cont) and 1445 constraints
   1338 constraints of type <setppc>
    107 constraints of type <linear>
objective value is always integral
Presolving Time: 3.76

 time | node  | left  |LP iter| mem |mdpt |frac |vars |cons |ccons|cols |rows |cuts |confs|strbr|  dualbound   | primalbound  |  gap   
  5.3s|     1 |     0 |  1258 |  54M|   0 | 160 |  17k|1445 |1445 |  17k|1445 |   0 |   0 |   0 | 0.000000e+00 |      --      |    Inf 
  6.1s|     1 |     0 |  1380 |  54M|   0 | 270 |  17k|1445 |1445 |  17k|1451 |   6 |   0 |   0 | 0.000000e+00 |      --      |    Inf 
  6.7s|     1 |     0 |  1479 |  54M|   0 | 269 |  17k|1445 |1445 |  17k|1457 |  12 |   0 |   0 | 0.000000e+00 |      --      |    Inf 
  7.2s|     1 |     0 |  1511 |  54M|   0 | 287 |  17k|1445 |1445 |  17k|1465 |  20 |   0 |   0 | 0.000000e+00 |      --      |    Inf 
  7.8s|     1 |     0 |  1592 |  54M|   0 | 311 |  17k|1445 |1445 |  17k|1472 |  27 |   0 |   0 | 0.000000e+00 |      --      |    Inf 
  8.4s|     1 |     0 |  1662 |  55M|   0 | 319 |  17k|1445 |1445 |  17k|1479 |  34 |   0 |   0 | 0.000000e+00 |      --      |    Inf 
  9.0s|     1 |     0 |  1708 |  55M|   0 | 326 |  17k|1445 |1445 |  17k|1485 |  40 |   0 |   0 | 0.000000e+00 |      --      |    Inf 
F25.2s|     1 |     2 |  2930 |  55M|   0 |   0 |  17k|1445 |1445 |  17k|1485 |  40 |   0 |  33 | 0.000000e+00 | 0.000000e+00 |   0.00%

SCIP Status        : problem is solved [optimal solution found]
Solving Time (sec) : 25.26
Solving Nodes      : 1
Primal Bound       : +0.00000000000000e+00 (1 solutions)
Dual Bound         : +0.00000000000000e+00
Gap                : 0.00 %

primal solution:
================

objective value:                                    0
Taught#1#1#15                                       1 	(obj:0)
Taught#1#2#46                                       1 	(obj:0)
Taught#1#3#52                                       1 	(obj:0)
Taught#1#4#9                                        1 	(obj:0)
Taught#1#5#35                                       1 	(obj:0)
Taught#1#6#11                                       1 	(obj:0)
Taught#1#7#36                                       1 	(obj:0)
Taught#1#8#43                                       1 	(obj:0)
Taught#1#9#14                                       1 	(obj:0)
Taught#1#11#67                                      1 	(obj:0)
Taught#1#12#8                                       1 	(obj:0)
Taught#2#1#43                                       1 	(obj:0)
Taught#2#2#4                                        1 	(obj:0)
Taught#2#3#25                                       1 	(obj:0)
Taught#2#4#3                                        1 	(obj:0)
Taught#2#5#22                                       1 	(obj:0)
Taught#2#6#32                                       1 	(obj:0)
Taught#2#7#60                                       1 	(obj:0)
Taught#2#8#19                                       1 	(obj:0)
Taught#2#9#33                                       1 	(obj:0)
Taught#2#10#2                                       1 	(obj:0)
Taught#2#11#13                                      1 	(obj:0)
Taught#2#12#46                                      1 	(obj:0)
Taught#3#1#27                                       1 	(obj:0)
Taught#3#2#23                                       1 	(obj:0)
Taught#3#3#11                                       1 	(obj:0)
Taught#3#4#40                                       1 	(obj:0)
Taught#3#5#14                                       1 	(obj:0)
Taught#3#6#22                                       1 	(obj:0)
Taught#3#7#56                                       1 	(obj:0)
Taught#3#8#48                                       1 	(obj:0)
Taught#3#9#33                                       1 	(obj:0)
Taught#3#10#67                                      1 	(obj:0)
Taught#3#11#59                                      1 	(obj:0)
Taught#3#12#32                                      1 	(obj:0)
Taught#4#1#23                                       1 	(obj:0)
Taught#4#2#40                                       1 	(obj:0)
Taught#4#3#33                                       1 	(obj:0)
Taught#4#4#13                                       1 	(obj:0)
Taught#4#5#51                                       1 	(obj:0)
Taught#4#6#26                                       1 	(obj:0)
Taught#4#7#66                                       1 	(obj:0)
Taught#4#8#31                                       1 	(obj:0)
Taught#4#9#12                                       1 	(obj:0)
Taught#4#10#25                                      1 	(obj:0)
Taught#4#11#44                                      1 	(obj:0)
Taught#4#12#32                                      1 	(obj:0)
Taught#5#1#23                                       1 	(obj:0)
Taught#5#2#16                                       1 	(obj:0)
Taught#5#3#33                                       1 	(obj:0)
Taught#5#4#58                                       1 	(obj:0)
Taught#5#5#29                                       1 	(obj:0)
Taught#5#6#17                                       1 	(obj:0)
Taught#5#7#68                                       1 	(obj:0)
Taught#5#8#15                                       1 	(obj:0)
Taught#5#11#36                                      1 	(obj:0)
Taught#5#12#39                                      1 	(obj:0)
Taught#6#1#34                                       1 	(obj:0)
Taught#6#2#50                                       1 	(obj:0)
Taught#6#4#38                                       1 	(obj:0)
Taught#6#8#5                                        1 	(obj:0)
Taught#6#9#14                                       1 	(obj:0)
Taught#6#10#65                                      1 	(obj:0)
Taught#6#11#18                                      1 	(obj:0)
Taught#6#12#62                                      1 	(obj:0)
Taught#7#1#51                                       1 	(obj:0)
Taught#7#2#57                                       1 	(obj:0)
Taught#7#3#38                                       1 	(obj:0)
Taught#7#5#55                                       1 	(obj:0)
Taught#7#6#21                                       1 	(obj:0)
Taught#7#11#16                                      1 	(obj:0)
Taught#8#1#38                                       1 	(obj:0)
Taught#8#2#7                                        1 	(obj:0)
Taught#8#3#20                                       1 	(obj:0)
Taught#8#6#54                                       1 	(obj:0)
Taught#8#8#56                                       1 	(obj:0)
Taught#8#10#40                                      1 	(obj:0)
Taught#8#11#48                                      1 	(obj:0)
Taught#8#12#52                                      1 	(obj:0)
Taught#9#1#38                                       1 	(obj:0)
Taught#9#2#5                                        1 	(obj:0)
Taught#9#3#47                                       1 	(obj:0)
Taught#9#4#34                                       1 	(obj:0)
Taught#9#6#44                                       1 	(obj:0)
Taught#9#8#60                                       1 	(obj:0)
Taught#9#10#9                                       1 	(obj:0)
Taught#9#11#58                                      1 	(obj:0)
Taught#10#1#24                                      1 	(obj:0)
Taught#10#2#35                                      1 	(obj:0)
Taught#10#3#65                                      1 	(obj:0)
Taught#10#4#57                                      1 	(obj:0)
Taught#10#5#39                                      1 	(obj:0)
Taught#10#6#30                                      1 	(obj:0)
Taught#10#7#47                                      1 	(obj:0)
Taught#10#9#45                                      1 	(obj:0)
Taught#10#11#68                                     1 	(obj:0)
Taught#10#12#58                                     1 	(obj:0)
Taught#11#3#54                                      1 	(obj:0)
Taught#11#5#61                                      1 	(obj:0)
Taught#11#6#67                                      1 	(obj:0)
Taught#11#7#30                                      1 	(obj:0)
Taught#11#9#12                                      1 	(obj:0)
Taught#11#10#8                                      1 	(obj:0)
Taught#11#11#4                                      1 	(obj:0)
Taught#11#12#62                                     1 	(obj:0)
Taught#12#2#18                                      1 	(obj:0)
Taught#12#5#14                                      1 	(obj:0)
Taught#12#7#10                                      1 	(obj:0)
Taught#12#8#63                                      1 	(obj:0)
Taught#12#9#56                                      1 	(obj:0)
Taught#12#10#42                                     1 	(obj:0)
Taught#12#11#37                                     1 	(obj:0)
Taught#13#1#63                                      1 	(obj:0)
Taught#13#3#42                                      1 	(obj:0)
Taught#13#4#3                                       1 	(obj:0)
Taught#13#5#49                                      1 	(obj:0)
Taught#13#6#51                                      1 	(obj:0)
Taught#13#8#34                                      1 	(obj:0)
Taught#14#2#10                                      1 	(obj:0)
Taught#14#3#31                                      1 	(obj:0)
Taught#14#5#55                                      1 	(obj:0)
Taught#14#6#17                                      1 	(obj:0)
Taught#14#7#36                                      1 	(obj:0)
Taught#14#8#59                                      1 	(obj:0)
Taught#14#10#15                                     1 	(obj:0)
Taught#14#12#64                                     1 	(obj:0)
Taught#15#2#52                                      1 	(obj:0)
Taught#15#4#31                                      1 	(obj:0)
Taught#15#6#41                                      1 	(obj:0)
Taught#15#8#36                                      1 	(obj:0)
Taught#15#12#55                                     1 	(obj:0)
Taught#16#2#58                                      1 	(obj:0)
Taught#16#3#17                                      1 	(obj:0)
Taught#16#8#45                                      1 	(obj:0)
Taught#16#10#15                                     1 	(obj:0)
Taught#16#11#48                                     1 	(obj:0)
Taught#17#1#32                                      1 	(obj:0)
Taught#17#2#25                                      1 	(obj:0)
Taught#17#7#6                                       1 	(obj:0)
Taught#17#8#47                                      1 	(obj:0)
Taught#17#10#10                                     1 	(obj:0)
Taught#18#1#61                                      1 	(obj:0)
Taught#18#2#69                                      1 	(obj:0)
Taught#18#5#21                                      1 	(obj:0)
Taught#18#6#9                                       1 	(obj:0)
Taught#18#8#6                                       1 	(obj:0)
Taught#18#12#31                                     1 	(obj:0)
Taught#19#1#69                                      1 	(obj:0)
Taught#19#2#63                                      1 	(obj:0)
Taught#19#5#49                                      1 	(obj:0)
Taught#19#6#35                                      1 	(obj:0)
Taught#19#11#47                                     1 	(obj:0)
Taught#19#12#55                                     1 	(obj:0)
Taught#20#1#2                                       1 	(obj:0)
Taught#20#2#45                                      1 	(obj:0)
Taught#20#3#62                                      1 	(obj:0)
Taught#20#4#18                                      1 	(obj:0)
Taught#20#5#51                                      1 	(obj:0)
Taught#20#6#40                                      1 	(obj:0)
Taught#20#9#5                                       1 	(obj:0)
Taught#20#10#16                                     1 	(obj:0)
Taught#20#12#7                                      1 	(obj:0)
Taught#21#1#18                                      1 	(obj:0)
Taught#21#4#27                                      1 	(obj:0)
Taught#21#10#1                                      1 	(obj:0)
Taught#21#11#6                                      1 	(obj:0)
Taught#21#12#37                                     1 	(obj:0)
Taught#22#1#60                                      1 	(obj:0)
Taught#22#3#9                                       1 	(obj:0)
Taught#22#5#49                                      1 	(obj:0)
Taught#22#8#46                                      1 	(obj:0)
Taught#22#9#64                                      1 	(obj:0)
Taught#22#10#42                                     1 	(obj:0)
Taught#22#11#1                                      1 	(obj:0)
Taught#23#2#66                                      1 	(obj:0)
Taught#23#3#61                                      1 	(obj:0)
Taught#23#4#29                                      1 	(obj:0)
Taught#23#5#20                                      1 	(obj:0)
Taught#23#6#41                                      1 	(obj:0)
Taught#23#9#35                                      1 	(obj:0)
Taught#23#10#53                                     1 	(obj:0)
Taught#23#12#28                                     1 	(obj:0)
Taught#24#2#25                                      1 	(obj:0)
Taught#24#3#24                                      1 	(obj:0)
Taught#24#4#8                                       1 	(obj:0)
Taught#24#5#1                                       1 	(obj:0)
Taught#24#7#53                                      1 	(obj:0)
Taught#24#8#28                                      1 	(obj:0)
Taught#24#9#41                                      1 	(obj:0)
Taught#24#10#50                                     1 	(obj:0)
Taught#24#11#56                                     1 	(obj:0)
Taught#24#12#54                                     1 	(obj:0)
Taught#25#2#21                                      1 	(obj:0)
Taught#25#3#37                                      1 	(obj:0)
Taught#25#4#1                                       1 	(obj:0)
Taught#25#5#63                                      1 	(obj:0)
Taught#25#6#26                                      1 	(obj:0)
Taught#25#7#19                                      1 	(obj:0)
Taught#25#10#54                                     1 	(obj:0)
Taught#25#12#68                                     1 	(obj:0)

Statistics
==========

SCIP Status        : problem is solved [optimal solution found]
Solving Time       :      25.26
Original Problem   :
  Problem name     : random_6.ctt.c.zpl
  Variables        : 20700 (20700 binary, 0 integer, 0 implicit integer, 0 continuous)
  Constraints      : 3520 initial, 3520 maximal
Presolved Problem  :
  Problem name     : t_random_6.ctt.c.zpl
  Variables        : 17988 (17988 binary, 0 integer, 0 implicit integer, 0 continuous)
  Constraints      : 1445 initial, 1445 maximal
Presolvers         :       Time  FixedVars   AggrVars   ChgTypes  ChgBounds   AddHoles    DelCons   ChgSides   ChgCoefs
  trivial          :       0.01          0          0          0          0          0          0          0          0
  inttobinary      :       0.00          0          0          0          0          0          0          0          0
  dualfix          :       0.02          0          0          0          0          0          0          0          0
  implics          :       0.02          0          0          0          0          0          0          0          0
  probing          :       2.79          0          0          0          0          0          0          0          0
  setppc           :       0.05          0          0          0          0          0          0          0          0
  linear           :       0.68       2712          0          0       2712          0       2075       1762          0
  root node        :          -          0          -          -          0          -          -          -          -
Constraints        :     Number  #Separate #Propagate    #EnfoLP    #EnfoPS    Cutoffs    DomReds       Cuts      Conss   Children
  integral         :          0          0          0          1          0          0          0          0          0          2
  setppc           :       1338          6        201          0          0          0          0          0          0          0
  linear           :        107          6        201          0          0          0          0          0          0          0
Constraint Timings :  TotalTime   Separate  Propagate     EnfoLP     EnfoPS
  integral         :      12.52       0.00       0.00      12.52       0.00
  setppc           :       0.04       0.00       0.04       0.00       0.00
  linear           :       2.10       0.00       2.10       0.00       0.00
Propagators        :       Time      Calls    Cutoffs    DomReds
  rootredcost      :       0.00          0          0          0
  pseudoobj        :       0.00          1          0          0
Conflict Analysis  :       Time      Calls    Success  Conflicts   Literals    Reconvs ReconvLits   LP Iters
  propagation      :       0.00          0          0          0        0.0          0        0.0          -
  infeasible LP    :       0.00          0          0          0        0.0          0        0.0          0
  bound exceed. LP :       0.00          0          0          0        0.0          0        0.0          0
  strong branching :       0.00          0          0          0        0.0          0        0.0          0
  pseudo solution  :       0.00          0          0          0        0.0          0        0.0          -
  applied globally :          -          -          -          0        0.0          -          -          -
  applied locally  :          -          -          -          0        0.0          -          -          -
Separators         :       Time      Calls    Cutoffs    DomReds       Cuts      Conss
  cut pool         :       0.00          5          -          -          0          -    (maximal pool size: 41)
  redcost          :       0.01          6          0          0          0          0
  impliedbounds    :       0.03          6          0          0          0          0
  intobj           :       0.00          0          0          0          0          0
  gomory           :       0.09          6          0          0          0          0
  strongcg         :       0.12          6          0          0          0          0
  cmir             :       1.80          6          0          0          0          0
  clique           :       0.13          6          0          0         40          0
Pricers            :       Time      Calls       Vars
  problem variables:       0.00          0          0
Branching Rules    :       Time      Calls    Cutoffs    DomReds       Cuts      Conss   Children
  relpscost        :      12.52          1          0          0          0          0          2
  pscost           :       0.00          0          0          0          0          0          0
  inference        :       0.00          0          0          0          0          0          0
  mostinf          :       0.00          0          0          0          0          0          0
  leastinf         :       0.00          0          0          0          0          0          0
  fullstrong       :       0.00          0          0          0          0          0          0
  allfullstrong    :       0.00          0          0          0          0          0          0
Primal Heuristics  :       Time      Calls      Found
  LP solutions     :       0.00          -          0
  pseudo solutions :       0.00          -          0
  octane           :       0.00          0          0
  simplerounding   :       0.00          7          0
  rounding         :       0.09          7          0
  shifting         :       0.50          7          0
  fixandinfer      :       0.00          0          0
  feaspump         :       3.76          1          1
  coefdiving       :       0.00          0          0
  pscostdiving     :       0.00          0          0
  fracdiving       :       0.00          0          0
  intdiving        :       0.00          0          0
  objpscostdiving  :       0.00          0          0
  rootsoldiving    :       0.00          0          0
  linesearchdiving :       0.00          0          0
  guideddiving     :       0.00          0          0
  rins             :       0.00          0          0
  localbranching   :       0.00          0          0
  crossover        :       0.00          0          0
LP                 :       Time      Calls Iterations  Iter/call   Iter/sec
  primal LP        :       0.00          0          0       0.00          -
  dual LP          :       2.04          7       1708     244.00     837.25
  barrier LP       :       0.00          0          0       0.00          -
  diving/probing LP:       3.72          1       1222    1222.00     328.49
  strong branching :      12.52         33       6097     184.76     486.98
    (at root node) :          -         33       6097     184.76          -
  conflict analysis:       0.00          0          0       0.00          -
B&B Tree           :
  number of runs   :          1
  nodes            :          1
  nodes (total)    :          1
  nodes left       :          0
  max depth        :          0
  max depth (total):          0
  backtracks       :          0 (0.0%)
  delayed cutoffs  :          0
  repropagations   :          0 (0 domain reductions, 0 cutoffs)
  avg switch length:       2.00
  switching time   :       0.00
Solution           :
  Solutions found  :          1 (1 improvements)
  Primal Bound     : +0.00000000000000e+00   (in run 1, after 1 nodes, 25.23 seconds, depth 0, found by <feaspump>)
  Dual Bound       : +0.00000000000000e+00
  Gap              :       0.00 %
  Root Dual Bound  : +0.00000000000000e+00
cp: copying multiple files, but last argument `/home/psxjm3/' is not a directory
Try `cp --help' for more information.
